NAME: ACTUAL_TOURS/amz1162
TYPE: TOUR
COMMENT: RouteID_7c0f731d-0e63-4e0b-b5a6-928cf5b83778
DIMENSION: 128
TOUR_SECTION
49
57
93
67
75
43
37
33
42
51
23
106
68
95
119
108
122
116
38
13
21
71
79
63
10
11
97
46
118
18
89
98
56
24
9
70
113
25
64
6
26
4
61
59
103
58
15
39
102
120
107
54
112
88
16
110
69
82
62
53
41
2
114
20
121
124
31
8
47
50
40
99
76
19
78
12
73
90
3
32
125
84
86
17
105
34
65
27
80
52
128
35
127
74
48
22
83
111
72
77
123
7
117
29
1
44
30
14
60
66
91
45
87
85
109
28
104
96
5
94
100
81
92
36
115
55
101
126
-1
EOF
